InboundTrucks  = 40;
OutboundTrucks = 20;
InboundDoors   = 6;
OutboundDoors  = 6;
ReleaseTime    = [74,108,24,116,69,118,45,59,6,84,64,27,77,28,117,36,62,88,100,27,42,56,9,32,24,20,11,56,98,68,46,24,60,100,41,30,81,101,51,54];
UnloadTime     = [23,14,37,39,29,23,17,31,27,35,34,24,37,14,35,36,10,39,23,44,16,32,11,33,33,10,26,19,12,37,21,27,14,19,35,33,40,20,41,42];
LoadTime       = [14,10,27,21,26,5,7,7,6,23,16,22,27,19,8,26,27,24,29,24];
TransferTime   = [| 0,0,21,0,45,0,0,19,0,0,45,0,0,0,30,19,0,17,0,0 | 0,27,0,0,50,0,0,0,31,27,0,47,0,0,0,0,0,0,0,24 | 0,17,17,0,0,0,0,0,0,0,0,44,0,0,0,0,0,29,0,47 | 0,0,0,0,0,0,0,0,0,0,0,36,0,0,0,0,0,0,0,27 | 0,15,0,0,0,0,36,10,23,0,0,0,0,0,47,0,0,18,22,0 | 0,0,0,0,43,0,0,0,0,0,0,17,0,0,0,0,0,27,0,13 | 43,16,0,34,0,0,0,0,0,0,0,0,34,0,0,19,0,0,0,27 | 0,0,12,43,0,0,0,0,0,0,0,0,0,0,0,0,0,0,0,0 | 11,0,0,34,13,34,35,0,0,38,0,0,0,0,0,0,0,0,0,0 | 0,0,43,10,0,0,0,0,0,0,0,0,0,0,0,0,0,0,39,0 | 0,0,0,0,44,0,0,0,0,0,47,20,0,0,0,0,0,0,0,0 | 0,0,18,22,0,19,0,0,21,37,0,32,0,26,10,30,27,50,36,22 | 0,0,0,0,0,0,0,0,0,0,0,0,19,0,16,0,0,0,23,0 | 0,16,35,0,21,0,0,0,49,0,21,45,0,0,0,0,0,0,0,0 | 0,0,0,0,33,41,0,0,0,0,0,38,0,0,0,0,14,0,0,0 | 39,0,23,44,18,0,0,0,0,0,49,21,0,0,0,0,0,42,0,0 | 0,29,0,0,31,0,29,44,0,0,0,12,0,0,0,31,0,0,0,0 | 0,0,16,0,0,0,22,24,0,43,0,0,0,34,0,0,0,0,0,0 | 0,0,22,0,0,0,0,0,0,48,0,12,0,0,0,0,44,22,0,0 | 21,0,0,0,0,0,0,0,0,0,0,0,0,0,0,0,0,16,0,22 | 0,50,0,29,25,0,50,50,45,0,0,0,0,0,30,0,38,0,0,0 | 0,0,14,18,0,0,0,0,0,0,13,0,45,37,0,0,41,0,31,0 | 0,0,46,50,0,0,0,50,0,12,40,0,0,0,0,0,0,0,31,31 | 0,0,24,48,0,0,0,31,0,0,33,0,0,0,0,0,10,0,44,0 | 0,0,0,0,0,0,0,0,0,41,11,0,0,0,0,0,39,0,0,27 | 0,0,0,0,0,0,0,0,0,0,33,0,0,0,27,0,0,0,0,0 | 0,30,47,0,0,0,0,0,0,0,0,0,0,0,0,0,0,0,30,0 | 0,0,0,0,0,0,0,0,0,0,33,0,0,0,0,0,0,0,0,0 | 0,0,0,0,17,16,24,0,10,0,25,0,0,0,0,0,0,0,46,0 | 19,0,0,0,0,0,0,0,23,0,20,0,0,0,28,0,14,0,0,0 | 0,0,0,0,0,0,27,0,0,0,0,44,0,0,0,15,33,0,0,0 | 0,27,24,31,41,0,0,0,47,0,0,0,0,0,0,0,18,12,0,0 | 0,33,0,0,21,0,50,40,0,0,0,0,0,0,0,0,39,0,0,0 | 46,33,0,30,34,0,0,0,0,0,15,0,0,0,0,0,0,15,0,0 | 0,48,0,45,0,0,0,12,0,0,21,0,0,0,0,0,28,0,0,0 | 0,16,0,0,0,0,15,0,0,0,0,26,34,0,0,0,0,0,0,0 | 0,0,0,0,15,0,0,0,28,0,0,0,0,0,0,0,0,0,0,0 | 0,0,0,30,29,0,0,0,0,0,35,0,0,0,10,0,15,0,13,0 | 11,43,0,35,0,0,16,0,0,25,0,0,0,0,0,0,0,13,45,0 | 39,0,0,0,0,0,0,0,0,0,0,0,0,0,0,28,0,0,0,0 |];
